TITL shelxt_a.res in P2(1)2(1)2
    shelx.res
    created by SHELXL-2016/6 at 16:34:29 on 13-Aug-2018
CELL  1.54184  19.7480  22.5272   5.7080   90.000   90.000   90.000
ZERR     6.00   0.0046   0.0052   0.0012    0.000    0.000    0.000
LATT  -1
SYMM  - X, - Y,   Z
SYMM  1/2 - X, 1/2 + Y, - Z
SYMM  1/2 + X, 1/2 - Y, - Z
SFAC  C    H    N    O    SE   CL
UNIT  114 72 24 6 6 0
MERG   2
ABIN
FMAP   2
PLAN   20
BOND   $H
LIST   6
L.S.  10
WGHT    0.106900
FVAR       0.59001  -1.11157
C1    1    0.619575    0.109659    0.858488    11.00000    0.05372    0.06877 =
         0.06157   -0.00572   -0.00553   -0.00183
C2    1    0.580147    0.059722    0.861026    11.00000    0.04948    0.07365 =
         0.04408    0.00402    0.01789    0.00026
C3    1    0.592526    0.018461    1.030158    11.00000    0.06440    0.09274 =
         0.07648   -0.01553    0.00984   -0.01815
AFIX  43
H3    2    0.565916   -0.015598    1.031578    11.00000   -1.20000
AFIX   0
C4    1    0.642483    0.023989    1.201165    11.00000    0.06359    0.07094 =
         0.06047    0.00643   -0.02308    0.00748
AFIX  43
H4    2    0.648237   -0.005074    1.315156    11.00000   -1.20000
AFIX   0
C5    1    0.681116    0.071241    1.196966    11.00000    0.07772    0.06942 =
         0.08030   -0.01083   -0.03733    0.00410
AFIX  43
H5    2    0.715328    0.075507    1.307654    11.00000   -1.20000
AFIX   0
C6    1    0.671783    0.113873    1.033441    11.00000    0.06740    0.07970 =
         0.07950   -0.01696   -0.00796   -0.01486
AFIX  43
H6    2    0.699981    0.146938    1.034073    11.00000   -1.20000
AFIX   0
C7    1    0.606878    0.158679    0.697861    11.00000    0.05554    0.07757 =
         0.06759   -0.00703    0.00198    0.00233
C8    1    0.647408    0.244942    0.486697    11.00000    0.06203    0.06312 =
         0.07206    0.00095   -0.01430   -0.02180
C9    1    0.696143    0.256592    0.317574    11.00000    0.07283    0.08665 =
         0.05551   -0.01188   -0.00234   -0.01371
AFIX  43
H9    2    0.735537    0.234105    0.307835    11.00000   -1.20000
AFIX   0
C10   1    0.683836    0.303278    0.162773    11.00000    0.08753    0.06771 =
         0.07570   -0.01987    0.02194   -0.03369
C11   1    0.625028    0.339454    0.172299    11.00000    0.10257    0.05528 =
         0.10921   -0.00381    0.00747   -0.02097
C12   1    0.579487    0.327648    0.360492    11.00000    0.10061    0.07233 =
         0.13237    0.00298    0.04258    0.00425
AFIX  43
H12   2    0.542641    0.352750    0.382449    11.00000   -1.20000
AFIX   0
C13   1    0.587790    0.281907    0.506272    11.00000    0.08745    0.06728 =
         0.07961   -0.00282    0.01154   -0.00262
AFIX  43
H13   2    0.555361    0.273829    0.620033    11.00000   -1.20000
AFIX   0
C14   1    0.684499    0.369760   -0.125480    11.00000    0.16826    0.07667 =
         0.08426   -0.01417    0.02299   -0.05754
C15   1    0.707905    0.404106   -0.314720    11.00000    0.20810    0.08411 =
         0.07122    0.00774   -0.02084   -0.04003
C16   1    0.670372    0.450488   -0.407595    11.00000    0.16564    0.16309 =
         0.11146   -0.02051    0.01180   -0.04737
AFIX  43
H16   2    0.627602    0.458948   -0.348129    11.00000   -1.20000
AFIX   0
C17   1    0.697084    0.484804   -0.592190    11.00000    0.32146    0.14830 =
         0.07675    0.03630   -0.00595   -0.02417
AFIX  43
H17   2    0.677157    0.520387   -0.637709    11.00000   -1.20000
AFIX   0
C18   1    0.748561    0.465280   -0.691416    11.00000    0.25628    0.15521 =
         0.07080    0.00853   -0.02353   -0.08557
AFIX  43
H18   2    0.762291    0.482525   -0.831622    11.00000   -1.20000
AFIX   0
C19   1    0.788712    0.415593   -0.594237    11.00000    0.17556    0.13067 =
         0.07487   -0.00587    0.00803   -0.08790
AFIX  43
H19   2    0.829656    0.405712   -0.664661    11.00000   -1.20000
AFIX   0
N1    3    0.655959    0.197537    0.639243    11.00000    0.06311    0.08143 =
         0.07130    0.00174   -0.00181   -0.01228
AFIX  43
H1    2    0.695325    0.192611    0.700664    11.00000   -1.20000
AFIX   0
N2    3    0.719182    0.326701   -0.017926    11.00000    0.12312    0.09190 =
         0.05858   -0.00976   -0.00638   -0.02660
AFIX  43
H2    2    0.759046    0.315299   -0.058601    11.00000   -1.20000
AFIX   0
N3    3    0.628382    0.376958   -0.006155    11.00000    0.16107    0.08005 =
         0.09515    0.01318   -0.00797   -0.02686
N4    3    0.768781    0.385779   -0.416056    11.00000    0.20658    0.10226 =
         0.05526   -0.01366    0.00111   -0.06546
O1    4    0.547832    0.163317    0.613595    11.00000    0.06476    0.08511 =
         0.07241    0.02188   -0.01040    0.00726
SE1   5    0.508844    0.051346    0.637434    11.00000    0.06179    0.06983 =
         0.05027    0.00406   -0.00670   -0.00911
O2    4    0.796379    0.180623    0.748909    11.00000    0.14559
HKLF    4




REM  shelxt_a.res in P2(1)2(1)2
REM R1 =  0.0853 for    2841 Fo > 4sig(Fo)  and  0.1391 for all    5125 data
REM    231 parameters refined using      0 restraints

END  
     
WGHT      0.1063      0.0000 

REM Highest difference peak  0.777,  deepest hole -0.783,  1-sigma level  0.098
Q1    1   0.4389  0.0098  0.6451  11.00000  0.05    0.65
Q2    1   0.7973  0.1496  0.6163  11.00000  0.05    0.60
Q3    1   0.4617  0.1111  0.6200  11.00000  0.05    0.50
Q4    1   0.5552  0.0843  0.7527  11.00000  0.05    0.48
Q5    1   0.5411  0.0879  0.7757  11.00000  0.05    0.47
Q6    1   0.5442  0.0842  0.4831  11.00000  0.05    0.47
Q7    1   0.4358  0.0835  0.6351  11.00000  0.05    0.45
Q8    1   0.4803  0.0832  0.7786  11.00000  0.05    0.45
Q9    1   0.4823  0.0800  0.4763  11.00000  0.05    0.44
Q10   1   0.5814  0.0740  0.6461  11.00000  0.05    0.43
Q11   1   0.5000  0.0000  0.4723  10.50000  0.05    0.41
Q12   1   0.5574  0.0904  1.0111  11.00000  0.05    0.39
Q13   1   0.5452  0.0793  1.0318  11.00000  0.05    0.38
Q14   1   0.4868  0.0140  0.7919  11.00000  0.05    0.37
Q15   1   0.6588  0.0949  0.6356  11.00000  0.05    0.37
Q16   1   0.5423  0.0241  0.7747  11.00000  0.05    0.35
Q17   1   0.4858  0.1455  0.6288  11.00000  0.05    0.35
Q18   1   0.4915 -0.0545  1.0474  11.00000  0.05    0.34
Q19   1   0.5549  0.0547  1.2219  11.00000  0.05    0.34
Q20   1   0.5817  0.0021  1.0349  11.00000  0.05    0.34
